results_rootrelaxation/bin012_050_047.srr.sol
solution status: optimal solution found
objective value:                                    0
_var6_                             0.0771194125954002 	(obj:0)
_var9_                             0.0285381336677988 	(obj:0)
_var20_                           0.00130196332201626 	(obj:0)
_var26_                            0.0513154019038362 	(obj:0)
_var326_                            0.124002016109544 	(obj:0)
_var456_                            0.196172356740529 	(obj:0)
_var470_                            0.110376841037366 	(obj:0)
_var541_                            0.120334926841908 	(obj:0)
_var686_                           0.0149477635557293 	(obj:0)
_var697_                            0.151545308001334 	(obj:0)
_var700_                            0.155565603160286 	(obj:0)
_var702_                            0.374018612919216 	(obj:0)
_var704_                           0.0345806614618319 	(obj:0)
_var709_                            0.184807248197396 	(obj:0)
_var710_                            0.300385819428002 	(obj:0)
_var715_                            0.169972278493814 	(obj:0)
_var716_                            0.242558667305183 	(obj:0)
_var718_                             0.31002099254723 	(obj:0)
_var727_                           0.0983172446331095 	(obj:0)
_var733_                             0.34087591193829 	(obj:0)
_var734_                           0.0661577837748254 	(obj:0)
_var738_                            0.320947816407708 	(obj:0)
_var739_                            0.416334032225523 	(obj:0)
_var741_                            0.120035217463324 	(obj:0)
_var745_                            0.191608395214186 	(obj:0)
_var747_                            0.100663034489779 	(obj:0)
_var748_                            0.101750367224554 	(obj:0)
_var750_                           0.0297208577746816 	(obj:0)
_var751_                            0.381972513105035 	(obj:0)
_var756_                            0.144744160984538 	(obj:0)
_var758_                            0.433644988117975 	(obj:0)
_var761_                            0.181000939089392 	(obj:0)
_var763_                            0.261292114807392 	(obj:0)
_var764_                            0.130127044549701 	(obj:0)
_var765_                            0.255103599541862 	(obj:0)
_var766_                            0.255827736072699 	(obj:0)
_var767_                           0.0592338525932621 	(obj:0)
_var768_                            0.073618935960801 	(obj:0)
_var770_                           0.0852073763311934 	(obj:0)
_var773_                            0.142721283813175 	(obj:0)
_var774_                          0.00311697753726825 	(obj:0)
_var776_                           0.0396441386191358 	(obj:0)
_var778_                            0.320399960554378 	(obj:0)
_var780_                            0.234387558386934 	(obj:0)
_var781_                            0.387862608064573 	(obj:0)
_var782_                            0.193000271349781 	(obj:0)
_var783_                            0.137215332487274 	(obj:0)
_var786_                            0.269574728505198 	(obj:0)
_var787_                            0.164033521043784 	(obj:0)
_var789_                            0.107479005841442 	(obj:0)
_var790_                            0.155623289158968 	(obj:0)
_var793_                            0.145176000304219 	(obj:0)
_var794_                          0.00973636531802213 	(obj:0)
_var796_                            0.426376552285101 	(obj:0)
_var797_                           0.0450740346618694 	(obj:0)
_var798_                           0.0736766219594849 	(obj:0)
_var802_                           0.0879982185016766 	(obj:0)
_var803_                            0.220626708424033 	(obj:0)
_var806_                             0.16528521053456 	(obj:0)
_var807_                           0.0226860663498505 	(obj:0)
_var808_                             0.12292918544147 	(obj:0)
_var809_                            0.167156299407731 	(obj:0)
_var810_                            0.123728732719181 	(obj:0)
_var812_                            0.396739161961016 	(obj:0)
_var813_                            0.142004237181619 	(obj:0)
