results_rootrelaxation/bin012_050_047.srr.log
SCIP version 8.0.3.5 [precision: 8 byte] [memory: block] [mode: optimized] [LP solver: Soplex 6.0.1.3] [GitHash: 438792519e]
Copyright (c) 2002-2023 Zuse Institute Berlin (ZIB)

External libraries: 
  Readline 8.1         GNU library for command line editing (gnu.org/s/readline)
  Soplex 6.0.1.3       Linear Programming Solver developed at Zuse Institute Berlin (soplex.zib.de) [GitHash: 713be0fe]
  CppAD 20180000.0     Algorithmic Differentiation of C++ algorithms developed by B. Bell (github.com/coin-or/CppAD)
  ZLIB 1.2.11          General purpose compression library by J. Gailly and M. Adler (zlib.net)
  bliss 0.77           Computing Graph Automorphism Groups by T. Junttila and P. Kaski (www.tcs.hut.fi/Software/bliss/)

user parameter file <scip.set> not found - using default parameters

srr/relaxation = TRUE

read problem <instances/bin012_050_047.srr>
============

Original problem: 
original problem has 0 variables (0 bin, 0 int, 0 impl, 0 cont) and 77 constraints

presolving:
presolving (1 rounds: 1 fast, 1 medium, 1 exhaustive):
 0 deleted vars, 0 deleted constraints, 0 added constraints, 0 tightened bounds, 0 added holes, 0 changed sides, 0 changed coefficients
 0 implications, 0 cliques
presolved problem has 0 variables (0 bin, 0 int, 0 impl, 0 cont) and 77 constraints
     77 constraints of type <linear>
Presolving Time: 0.00

 time | node  | left  |LP iter|LP it/n|mem/heur|mdpt |vars |cons |rows |cuts |sepa|confs|strbr|  dualbound   | primalbound  |  gap   | compl. 
  0.0s|     1 |     0 |     1 |     - |   710k |   0 |   1 |  77 |  77 |   0 |  0 |   0 |   0 |      --      |      --      |    Inf | unknown
r 0.1s|     1 |     0 |  1180 |     - |simplero|   0 | 673 |  77 |  77 |   0 |  0 |   0 |   0 |      --      | 1.190911e+01 |    Inf | unknown
r 0.1s|     1 |     0 |  1252 |     - |simplero|   0 | 684 |  77 |  77 |   0 |  0 |   0 |   0 |      --      | 1.044441e+01 |    Inf | unknown
r 0.1s|     1 |     0 |  1279 |     - |simplero|   0 | 695 |  77 |  77 |   0 |  0 |   0 |   0 |      --      | 9.884042e+00 |    Inf | unknown
r 0.1s|     1 |     0 |  1336 |     - |simplero|   0 | 706 |  77 |  77 |   0 |  0 |   0 |   0 |      --      | 9.099082e+00 |    Inf | unknown
r 0.1s|     1 |     0 |  1378 |     - |simplero|   0 | 717 |  77 |  77 |   0 |  0 |   0 |   0 |      --      | 7.850448e+00 |    Inf | unknown
r 0.1s|     1 |     0 |  1432 |     - |simplero|   0 | 728 |  77 |  77 |   0 |  0 |   0 |   0 |      --      | 6.812683e+00 |    Inf | unknown
r 0.1s|     1 |     0 |  1474 |     - |simplero|   0 | 739 |  77 |  77 |   0 |  0 |   0 |   0 |      --      | 5.387539e+00 |    Inf | unknown
r 0.1s|     1 |     0 |  1490 |     - |simplero|   0 | 739 |  77 |  77 |   0 |  0 |   0 |   0 |      --      | 5.215498e+00 |    Inf | unknown
r 0.1s|     1 |     0 |  1493 |     - |simplero|   0 | 739 |  77 |  77 |   0 |  0 |   0 |   0 |      --      | 5.210955e+00 |    Inf | unknown
r 0.1s|     1 |     0 |  1529 |     - |simplero|   0 | 750 |  77 |  77 |   0 |  0 |   0 |   0 |      --      | 4.541717e+00 |    Inf | unknown
r 0.1s|     1 |     0 |  1539 |     - |simplero|   0 | 750 |  77 |  77 |   0 |  0 |   0 |   0 |      --      | 4.514285e+00 |    Inf | unknown
r 0.1s|     1 |     0 |  1582 |     - |simplero|   0 | 761 |  77 |  77 |   0 |  0 |   0 |   0 |      --      | 3.419792e+00 |    Inf | unknown
r 0.1s|     1 |     0 |  1588 |     - |simplero|   0 | 761 |  77 |  77 |   0 |  0 |   0 |   0 |      --      | 3.409474e+00 |    Inf | unknown
r 0.1s|     1 |     0 |  1592 |     - |simplero|   0 | 761 |  77 |  77 |   0 |  0 |   0 |   0 |      --      | 3.405360e+00 |    Inf | unknown
 time | node  | left  |LP iter|LP it/n|mem/heur|mdpt |vars |cons |rows |cuts |sepa|confs|strbr|  dualbound   | primalbound  |  gap   | compl. 
r 0.1s|     1 |     0 |  1629 |     - |simplero|   0 | 772 |  77 |  77 |   0 |  0 |   0 |   0 |      --      | 2.773281e+00 |    Inf | unknown
r 0.1s|     1 |     0 |  1636 |     - |simplero|   0 | 772 |  77 |  77 |   0 |  0 |   0 |   0 |      --      | 2.738443e+00 |    Inf | unknown
r 0.1s|     1 |     0 |  1638 |     - |simplero|   0 | 772 |  77 |  77 |   0 |  0 |   0 |   0 |      --      | 2.737501e+00 |    Inf | unknown
r 0.1s|     1 |     0 |  1675 |     - |simplero|   0 | 783 |  77 |  77 |   0 |  0 |   0 |   0 |      --      | 1.823368e+00 |    Inf | unknown
r 0.1s|     1 |     0 |  1686 |     - |simplero|   0 | 783 |  77 |  77 |   0 |  0 |   0 |   0 |      --      | 1.786135e+00 |    Inf | unknown
r 0.1s|     1 |     0 |  1697 |     - |simplero|   0 | 783 |  77 |  77 |   0 |  0 |   0 |   0 |      --      | 1.772597e+00 |    Inf | unknown
r 0.1s|     1 |     0 |  1746 |     - |simplero|   0 | 794 |  77 |  77 |   0 |  0 |   0 |   0 |      --      | 1.014986e+00 |    Inf | unknown
r 0.1s|     1 |     0 |  1773 |     - |simplero|   0 | 794 |  77 |  77 |   0 |  0 |   0 |   0 |      --      | 7.558277e-01 |    Inf | unknown
r 0.1s|     1 |     0 |  1775 |     - |simplero|   0 | 794 |  77 |  77 |   0 |  0 |   0 |   0 |      --      | 7.503072e-01 |    Inf | unknown
r 0.1s|     1 |     0 |  1820 |     - |simplero|   0 | 805 |  77 |  77 |   0 |  0 |   0 |   0 |      --      | 4.298202e-01 |    Inf | unknown
r 0.1s|     1 |     0 |  1856 |     - |simplero|   0 | 816 |  77 |  77 |   0 |  0 |   0 |   0 |      --      | 9.885479e-02 |    Inf | unknown
r 0.1s|     1 |     0 |  1862 |     - |simplero|   0 | 816 |  77 |  77 |   0 |  0 |   0 |   0 |      --      | 0.000000e+00 |    Inf | unknown
  0.1s|     1 |     0 |  1862 |     - |  4015k |   0 | 816 |  77 |  77 |   0 |  0 |   0 |   0 | 0.000000e+00 | 0.000000e+00 |   0.00%| unknown
  0.1s|     1 |     0 |  1862 |     - |  4015k |   0 | 816 |  77 |  77 |   0 |  0 |   0 |   0 | 0.000000e+00 | 0.000000e+00 |   0.00%| unknown

SCIP Status        : problem is solved [optimal solution found]
Solving Time (sec) : 0.10
Solving Nodes      : 1
Primal Bound       : +0.00000000000000e+00 (26 solutions)
Dual Bound         : +0.00000000000000e+00
Gap                : 0.00 %

written transformed problem to file <results_rootrelaxation/bin012_050_047.srr.lp>
written transformed problem to file <results_rootrelaxation/bin012_050_047.srr.cip>


SCIP version 8.0.3.5 [precision: 8 byte] [memory: block] [mode: optimized] [LP solver: Soplex 6.0.1.3] [GitHash: 438792519e]
Copyright (c) 2002-2023 Zuse Institute Berlin (ZIB)

External libraries: 
  Readline 8.1         GNU library for command line editing (gnu.org/s/readline)
  Soplex 6.0.1.3       Linear Programming Solver developed at Zuse Institute Berlin (soplex.zib.de) [GitHash: 713be0fe]
  CppAD 20180000.0     Algorithmic Differentiation of C++ algorithms developed by B. Bell (github.com/coin-or/CppAD)
  ZLIB 1.2.11          General purpose compression library by J. Gailly and M. Adler (zlib.net)
  bliss 0.77           Computing Graph Automorphism Groups by T. Junttila and P. Kaski (www.tcs.hut.fi/Software/bliss/)

user parameter file <scip.set> not found - using default parameters

srr/relaxation = TRUE

read problem <instances/bin012_050_047.srr>
============

Original problem: 
original problem has 0 variables (0 bin, 0 int, 0 impl, 0 cont) and 77 constraints

presolving:
presolving (1 rounds: 1 fast, 1 medium, 1 exhaustive):
 0 deleted vars, 0 deleted constraints, 0 added constraints, 0 tightened bounds, 0 added holes, 0 changed sides, 0 changed coefficients
 0 implications, 0 cliques
presolved problem has 0 variables (0 bin, 0 int, 0 impl, 0 cont) and 77 constraints
     77 constraints of type <linear>
Presolving Time: 0.00

 time | node  | left  |LP iter|LP it/n|mem/heur|mdpt |vars |cons |rows |cuts |sepa|confs|strbr|  dualbound   | primalbound  |  gap   | compl. 
  0.0s|     1 |     0 |     1 |     - |   710k |   0 |   1 |  77 |  77 |   0 |  0 |   0 |   0 |      --      |      --      |    Inf | unknown
r 0.1s|     1 |     0 |  1180 |     - |simplero|   0 | 673 |  77 |  77 |   0 |  0 |   0 |   0 |      --      | 1.190911e+01 |    Inf | unknown
r 0.1s|     1 |     0 |  1252 |     - |simplero|   0 | 684 |  77 |  77 |   0 |  0 |   0 |   0 |      --      | 1.044441e+01 |    Inf | unknown
r 0.1s|     1 |     0 |  1279 |     - |simplero|   0 | 695 |  77 |  77 |   0 |  0 |   0 |   0 |      --      | 9.884042e+00 |    Inf | unknown
r 0.1s|     1 |     0 |  1336 |     - |simplero|   0 | 706 |  77 |  77 |   0 |  0 |   0 |   0 |      --      | 9.099082e+00 |    Inf | unknown
r 0.1s|     1 |     0 |  1378 |     - |simplero|   0 | 717 |  77 |  77 |   0 |  0 |   0 |   0 |      --      | 7.850448e+00 |    Inf | unknown
r 0.1s|     1 |     0 |  1432 |     - |simplero|   0 | 728 |  77 |  77 |   0 |  0 |   0 |   0 |      --      | 6.812683e+00 |    Inf | unknown
r 0.1s|     1 |     0 |  1474 |     - |simplero|   0 | 739 |  77 |  77 |   0 |  0 |   0 |   0 |      --      | 5.387539e+00 |    Inf | unknown
r 0.1s|     1 |     0 |  1490 |     - |simplero|   0 | 739 |  77 |  77 |   0 |  0 |   0 |   0 |      --      | 5.215498e+00 |    Inf | unknown
r 0.1s|     1 |     0 |  1493 |     - |simplero|   0 | 739 |  77 |  77 |   0 |  0 |   0 |   0 |      --      | 5.210955e+00 |    Inf | unknown
r 0.1s|     1 |     0 |  1529 |     - |simplero|   0 | 750 |  77 |  77 |   0 |  0 |   0 |   0 |      --      | 4.541717e+00 |    Inf | unknown
r 0.1s|     1 |     0 |  1539 |     - |simplero|   0 | 750 |  77 |  77 |   0 |  0 |   0 |   0 |      --      | 4.514285e+00 |    Inf | unknown
r 0.1s|     1 |     0 |  1582 |     - |simplero|   0 | 761 |  77 |  77 |   0 |  0 |   0 |   0 |      --      | 3.419792e+00 |    Inf | unknown
r 0.1s|     1 |     0 |  1588 |     - |simplero|   0 | 761 |  77 |  77 |   0 |  0 |   0 |   0 |      --      | 3.409474e+00 |    Inf | unknown
r 0.1s|     1 |     0 |  1592 |     - |simplero|   0 | 761 |  77 |  77 |   0 |  0 |   0 |   0 |      --      | 3.405360e+00 |    Inf | unknown
 time | node  | left  |LP iter|LP it/n|mem/heur|mdpt |vars |cons |rows |cuts |sepa|confs|strbr|  dualbound   | primalbound  |  gap   | compl. 
r 0.1s|     1 |     0 |  1629 |     - |simplero|   0 | 772 |  77 |  77 |   0 |  0 |   0 |   0 |      --      | 2.773281e+00 |    Inf | unknown
r 0.1s|     1 |     0 |  1636 |     - |simplero|   0 | 772 |  77 |  77 |   0 |  0 |   0 |   0 |      --      | 2.738443e+00 |    Inf | unknown
r 0.1s|     1 |     0 |  1638 |     - |simplero|   0 | 772 |  77 |  77 |   0 |  0 |   0 |   0 |      --      | 2.737501e+00 |    Inf | unknown
r 0.1s|     1 |     0 |  1675 |     - |simplero|   0 | 783 |  77 |  77 |   0 |  0 |   0 |   0 |      --      | 1.823368e+00 |    Inf | unknown
r 0.1s|     1 |     0 |  1686 |     - |simplero|   0 | 783 |  77 |  77 |   0 |  0 |   0 |   0 |      --      | 1.786135e+00 |    Inf | unknown
r 0.1s|     1 |     0 |  1697 |     - |simplero|   0 | 783 |  77 |  77 |   0 |  0 |   0 |   0 |      --      | 1.772597e+00 |    Inf | unknown
r 0.1s|     1 |     0 |  1746 |     - |simplero|   0 | 794 |  77 |  77 |   0 |  0 |   0 |   0 |      --      | 1.014986e+00 |    Inf | unknown
r 0.1s|     1 |     0 |  1773 |     - |simplero|   0 | 794 |  77 |  77 |   0 |  0 |   0 |   0 |      --      | 7.558277e-01 |    Inf | unknown
r 0.1s|     1 |     0 |  1775 |     - |simplero|   0 | 794 |  77 |  77 |   0 |  0 |   0 |   0 |      --      | 7.503072e-01 |    Inf | unknown
r 0.1s|     1 |     0 |  1820 |     - |simplero|   0 | 805 |  77 |  77 |   0 |  0 |   0 |   0 |      --      | 4.298202e-01 |    Inf | unknown
r 0.1s|     1 |     0 |  1856 |     - |simplero|   0 | 816 |  77 |  77 |   0 |  0 |   0 |   0 |      --      | 9.885479e-02 |    Inf | unknown
r 0.1s|     1 |     0 |  1862 |     - |simplero|   0 | 816 |  77 |  77 |   0 |  0 |   0 |   0 |      --      | 0.000000e+00 |    Inf | unknown
  0.1s|     1 |     0 |  1862 |     - |  4015k |   0 | 816 |  77 |  77 |   0 |  0 |   0 |   0 | 0.000000e+00 | 0.000000e+00 |   0.00%| unknown
  0.1s|     1 |     0 |  1862 |     - |  4015k |   0 | 816 |  77 |  77 |   0 |  0 |   0 |   0 | 0.000000e+00 | 0.000000e+00 |   0.00%| unknown

SCIP Status        : problem is solved [optimal solution found]
Solving Time (sec) : 0.10
Solving Nodes      : 1
Primal Bound       : +0.00000000000000e+00 (26 solutions)
Dual Bound         : +0.00000000000000e+00
Gap                : 0.00 %

written transformed problem to file <results_rootrelaxation/bin012_050_047.srr.lp>
written transformed problem to file <results_rootrelaxation/bin012_050_047.srr.cip>

written solution information to file <results_rootrelaxation/bin012_050_047.srr.sol>



